BAYES
625
2 2 2 2 2 2 2 2 2 2 2 2 2 2 2 2 2 2 2 2 2 2 2 2 2 2 2 2 2 2 2 2 2 2 2 2 2 2 2 2 2 2 2 2 2 2 2 2 2 2 2 2 2 2 2 2 2 2 2 2 2 2 2 2 2 2 2 2 2 2 2 2 2 2 2 2 2 2 2 2 2 2 2 2 2 2 2 2 2 2 2 2 2 2 2 2 2 2 2 2 2 2 2 2 2 2 2 2 2 2 2 2 2 2 2 2 2 2 2 2 2 2 2 2 2 2 2 2 2 2 2 2 2 2 2 2 2 2 2 2 2 2 2 2 2 2 2 2 2 2 2 2 2 2 2 2 2 2 2 2 2 2 2 2 2 2 2 2 2 2 2 2 2 2 2 2 2 2 2 2 2 2 2 2 2 2 2 2 2 2 2 2 2 2 2 2 2 2 2 2 2 2 2 2 2 2 2 2 2 2 2 2 2 2 2 2 2 2 2 2 2 2 2 2 2 2 2 2 2 2 2 2 2 2 2 2 2 2 2 2 2 2 2 2 2 2 2 2 2 2 2 2 2 2 2 2 2 2 2 2 2 2 2 2 2 2 2 2 2 2 2 2 2 2 2 2 2 2 2 2 2 2 2 2 2 2 2 2 2 2 2 2 2 2 2 2 2 2 2 2 2 2 2 2 2 2 2 2 2 2 2 2 2 2 2 2 2 2 2 2 2 2 2 2 2 2 2 2 2 2 2 2 2 2 2 2 2 2 2 2 2 2 2 2 2 2 2 2 2 2 2 2 2 2 2 2 2 2 2 2 2 2 2 2 2 2 2 2 2 2 2 2 2 2 2 2 2 2 2 2 2 2 2 2 2 2 2 2 2 2 2 2 2 2 2 2 2 2 2 2 2 2 2 2 2 2 2 2 2 2 2 2 2 2 2 2 2 2 2 2 2 2 2 2 2 2 2 2 2 2 2 2 2 2 2 2 2 2 2 2 2 2 2 2 2 2 2 2 2 2 2 2 2 2 2 2 2 2 2 2 2 2 2 2 2 2 2 2 2 2 2 2 2 2 2 2 2 2 2 2 2 2 2 2 2 2 2 2 2 2 2 2 2 2 2 2 2 2 2 2 2 2 2 2 2 2 2 2 2 2 2 2 2 2 2 2 2 2 2 2 2 2 2 2 2 2 2 2 2 2 2 2 2 2 2 2 2 2 2 2 2 2 2 2 2 2 2 2 2 2 2 2 2 2 2 2 2 2 2 2 2 2 2 2 2 2 2 2 2 2 2 2 2 2 2 2 2 2 2 2 2 2 2 2 2 2 2 2 2 2 2 2 2 2 2 2 2 2 2 2 2 2 2 2 2 2 2 2 2 2 2 2 2 2 2 2 2 2 2 2 2 2 2 2 2
625
3 25 1 0
3 26 2 1
3 27 3 2
3 28 4 3
3 29 5 4
3 30 6 5
3 31 7 6
3 32 8 7
3 33 9 8
3 34 10 9
3 35 11 10
3 36 12 11
3 37 13 12
3 38 14 13
3 39 15 14
3 40 16 15
3 41 17 16
3 42 18 17
3 43 19 18
3 44 20 19
3 45 21 20
3 46 22 21
3 47 23 22
3 48 24 23
2 49 24
3 50 26 25
3 51 27 26
3 52 28 27
3 53 29 28
3 54 30 29
3 55 31 30
3 56 32 31
3 57 33 32
3 58 34 33
3 59 35 34
3 60 36 35
3 61 37 36
3 62 38 37
3 63 39 38
3 64 40 39
3 65 41 40
3 66 42 41
3 67 43 42
3 68 44 43
3 69 45 44
3 70 46 45
3 71 47 46
3 72 48 47
3 73 49 48
2 74 49
3 75 51 50
3 76 52 51
3 77 53 52
3 78 54 53
3 79 55 54
3 80 56 55
3 81 57 56
3 82 58 57
3 83 59 58
3 84 60 59
3 85 61 60
3 86 62 61
3 87 63 62
3 88 64 63
3 89 65 64
3 90 66 65
3 91 67 66
3 92 68 67
3 93 69 68
3 94 70 69
3 95 71 70
3 96 72 71
3 97 73 72
3 98 74 73
2 99 74
3 100 76 75
3 101 77 76
3 102 78 77
3 103 79 78
3 104 80 79
3 105 81 80
3 106 82 81
3 107 83 82
3 108 84 83
3 109 85 84
3 110 86 85
3 111 87 86
3 112 88 87
3 113 89 88
3 114 90 89
3 115 91 90
3 116 92 91
3 117 93 92
3 118 94 93
3 119 95 94
3 120 96 95
3 121 97 96
3 122 98 97
3 123 99 98
2 124 99
3 125 101 100
3 126 102 101
3 127 103 102
3 128 104 103
3 129 105 104
3 130 106 105
3 131 107 106
3 132 108 107
3 133 109 108
3 134 110 109
3 135 111 110
3 136 112 111
3 137 113 112
3 138 114 113
3 139 115 114
3 140 116 115
3 141 117 116
3 142 118 117
3 143 119 118
3 144 120 119
3 145 121 120
3 146 122 121
3 147 123 122
3 148 124 123
2 149 124
3 150 126 125
3 151 127 126
3 152 128 127
3 153 129 128
3 154 130 129
3 155 131 130
3 156 132 131
3 157 133 132
3 158 134 133
3 159 135 134
3 160 136 135
3 161 137 136
3 162 138 137
3 163 139 138
3 164 140 139
3 165 141 140
3 166 142 141
3 167 143 142
3 168 144 143
3 169 145 144
3 170 146 145
3 171 147 146
3 172 148 147
3 173 149 148
2 174 149
3 175 151 150
3 176 152 151
3 177 153 152
3 178 154 153
3 179 155 154
3 180 156 155
3 181 157 156
3 182 158 157
3 183 159 158
3 184 160 159
3 185 161 160
3 186 162 161
3 187 163 162
3 188 164 163
3 189 165 164
3 190 166 165
3 191 167 166
3 192 168 167
3 193 169 168
3 194 170 169
3 195 171 170
3 196 172 171
3 197 173 172
3 198 174 173
2 199 174
3 200 176 175
3 201 177 176
3 202 178 177
3 203 179 178
3 204 180 179
3 205 181 180
3 206 182 181
3 207 183 182
3 208 184 183
3 209 185 184
3 210 186 185
3 211 187 186
3 212 188 187
3 213 189 188
3 214 190 189
3 215 191 190
3 216 192 191
3 217 193 192
3 218 194 193
3 219 195 194
3 220 196 195
3 221 197 196
3 222 198 197
3 223 199 198
2 224 199
3 225 201 200
3 226 202 201
3 227 203 202
3 228 204 203
3 229 205 204
3 230 206 205
3 231 207 206
3 232 208 207
3 233 209 208
3 234 210 209
3 235 211 210
3 236 212 211
3 237 213 212
3 238 214 213
3 239 215 214
3 240 216 215
3 241 217 216
3 242 218 217
3 243 219 218
3 244 220 219
3 245 221 220
3 246 222 221
3 247 223 222
3 248 224 223
2 249 224
3 250 226 225
3 251 227 226
3 252 228 227
3 253 229 228
3 254 230 229
3 255 231 230
3 256 232 231
3 257 233 232
3 258 234 233
3 259 235 234
3 260 236 235
3 261 237 236
3 262 238 237
3 263 239 238
3 264 240 239
3 265 241 240
3 266 242 241
3 267 243 242
3 268 244 243
3 269 245 244
3 270 246 245
3 271 247 246
3 272 248 247
3 273 249 248
2 274 249
3 275 251 250
3 276 252 251
3 277 253 252
3 278 254 253
3 279 255 254
3 280 256 255
3 281 257 256
3 282 258 257
3 283 259 258
3 284 260 259
3 285 261 260
3 286 262 261
3 287 263 262
3 288 264 263
3 289 265 264
3 290 266 265
3 291 267 266
3 292 268 267
3 293 269 268
3 294 270 269
3 295 271 270
3 296 272 271
3 297 273 272
3 298 274 273
2 299 274
3 300 276 275
3 301 277 276
3 302 278 277
3 303 279 278
3 304 280 279
3 305 281 280
3 306 282 281
3 307 283 282
3 308 284 283
3 309 285 284
3 310 286 285
3 311 287 286
3 312 288 287
3 313 289 288
3 314 290 289
3 315 291 290
3 316 292 291
3 317 293 292
3 318 294 293
3 319 295 294
3 320 296 295
3 321 297 296
3 322 298 297
3 323 299 298
2 324 299
3 325 301 300
3 326 302 301
3 327 303 302
3 328 304 303
3 329 305 304
3 330 306 305
3 331 307 306
3 332 308 307
3 333 309 308
3 334 310 309
3 335 311 310
3 336 312 311
3 337 313 312
3 338 314 313
3 339 315 314
3 340 316 315
3 341 317 316
3 342 318 317
3 343 319 318
3 344 320 319
3 345 321 320
3 346 322 321
3 347 323 322
3 348 324 323
2 349 324
3 350 326 325
3 351 327 326
3 352 328 327
3 353 329 328
3 354 330 329
3 355 331 330
3 356 332 331
3 357 333 332
3 358 334 333
3 359 335 334
3 360 336 335
3 361 337 336
3 362 338 337
3 363 339 338
3 364 340 339
3 365 341 340
3 366 342 341
3 367 343 342
3 368 344 343
3 369 345 344
3 370 346 345
3 371 347 346
3 372 348 347
3 373 349 348
2 374 349
3 375 351 350
3 376 352 351
3 377 353 352
3 378 354 353
3 379 355 354
3 380 356 355
3 381 357 356
3 382 358 357
3 383 359 358
3 384 360 359
3 385 361 360
3 386 362 361
3 387 363 362
3 388 364 363
3 389 365 364
3 390 366 365
3 391 367 366
3 392 368 367
3 393 369 368
3 394 370 369
3 395 371 370
3 396 372 371
3 397 373 372
3 398 374 373
2 399 374
3 400 376 375
3 401 377 376
3 402 378 377
3 403 379 378
3 404 380 379
3 405 381 380
3 406 382 381
3 407 383 382
3 408 384 383
3 409 385 384
3 410 386 385
3 411 387 386
3 412 388 387
3 413 389 388
3 414 390 389
3 415 391 390
3 416 392 391
3 417 393 392
3 418 394 393
3 419 395 394
3 420 396 395
3 421 397 396
3 422 398 397
3 423 399 398
2 424 399
3 425 401 400
3 426 402 401
3 427 403 402
3 428 404 403
3 429 405 404
3 430 406 405
3 431 407 406
3 432 408 407
3 433 409 408
3 434 410 409
3 435 411 410
3 436 412 411
3 437 413 412
3 438 414 413
3 439 415 414
3 440 416 415
3 441 417 416
3 442 418 417
3 443 419 418
3 444 420 419
3 445 421 420
3 446 422 421
3 447 423 422
3 448 424 423
2 449 424
3 450 426 425
3 451 427 426
3 452 428 427
3 453 429 428
3 454 430 429
3 455 431 430
3 456 432 431
3 457 433 432
3 458 434 433
3 459 435 434
3 460 436 435
3 461 437 436
3 462 438 437
3 463 439 438
3 464 440 439
3 465 441 440
3 466 442 441
3 467 443 442
3 468 444 443
3 469 445 444
3 470 446 445
3 471 447 446
3 472 448 447
3 473 449 448
2 474 449
3 475 451 450
3 476 452 451
3 477 453 452
3 478 454 453
3 479 455 454
3 480 456 455
3 481 457 456
3 482 458 457
3 483 459 458
3 484 460 459
3 485 461 460
3 486 462 461
3 487 463 462
3 488 464 463
3 489 465 464
3 490 466 465
3 491 467 466
3 492 468 467
3 493 469 468
3 494 470 469
3 495 471 470
3 496 472 471
3 497 473 472
3 498 474 473
2 499 474
3 500 476 475
3 501 477 476
3 502 478 477
3 503 479 478
3 504 480 479
3 505 481 480
3 506 482 481
3 507 483 482
3 508 484 483
3 509 485 484
3 510 486 485
3 511 487 486
3 512 488 487
3 513 489 488
3 514 490 489
3 515 491 490
3 516 492 491
3 517 493 492
3 518 494 493
3 519 495 494
3 520 496 495
3 521 497 496
3 522 498 497
3 523 499 498
2 524 499
3 525 501 500
3 526 502 501
3 527 503 502
3 528 504 503
3 529 505 504
3 530 506 505
3 531 507 506
3 532 508 507
3 533 509 508
3 534 510 509
3 535 511 510
3 536 512 511
3 537 513 512
3 538 514 513
3 539 515 514
3 540 516 515
3 541 517 516
3 542 518 517
3 543 519 518
3 544 520 519
3 545 521 520
3 546 522 521
3 547 523 522
3 548 524 523
2 549 524
3 550 526 525
3 551 527 526
3 552 528 527
3 553 529 528
3 554 530 529
3 555 531 530
3 556 532 531
3 557 533 532
3 558 534 533
3 559 535 534
3 560 536 535
3 561 537 536
3 562 538 537
3 563 539 538
3 564 540 539
3 565 541 540
3 566 542 541
3 567 543 542
3 568 544 543
3 569 545 544
3 570 546 545
3 571 547 546
3 572 548 547
3 573 549 548
2 574 549
3 575 551 550
3 576 552 551
3 577 553 552
3 578 554 553
3 579 555 554
3 580 556 555
3 581 557 556
3 582 558 557
3 583 559 558
3 584 560 559
3 585 561 560
3 586 562 561
3 587 563 562
3 588 564 563
3 589 565 564
3 590 566 565
3 591 567 566
3 592 568 567
3 593 569 568
3 594 570 569
3 595 571 570
3 596 572 571
3 597 573 572
3 598 574 573
2 599 574
3 600 576 575
3 601 577 576
3 602 578 577
3 603 579 578
3 604 580 579
3 605 581 580
3 606 582 581
3 607 583 582
3 608 584 583
3 609 585 584
3 610 586 585
3 611 587 586
3 612 588 587
3 613 589 588
3 614 590 589
3 615 591 590
3 616 592 591
3 617 593 592
3 618 594 593
3 619 595 594
3 620 596 595
3 621 597 596
3 622 598 597
3 623 599 598
2 624 599
2 601 600
2 602 601
2 603 602
2 604 603
2 605 604
2 606 605
2 607 606
2 608 607
2 609 608
2 610 609
2 611 610
2 612 611
2 613 612
2 614 613
2 615 614
2 616 615
2 617 616
2 618 617
2 619 618
2 620 619
2 621 620
2 622 621
2 623 622
2 624 623
1  624
8
0 1 0 1 1 0 0 1
8
1 0 1 0 1 0 1 0
8
0 1 1 0 0 1 0 1
8
0 1 1 0 1 0 0 1
8
1 0 0 1 1 0 1 0
8
0 1 1 0 1 0 1 0
8
0 1 1 0 1 0 0 1
8
0 1 1 0 0 1 1 0
8
1 0 1 0 0 1 1 0
8
0 1 1 0 0 1 1 0
8
0.0568341465531947 0.9431658534468053 0.39153269653246153 0.6084673034675384 0.5020092030832359 0.49799079691676407 0.6491427729959016 0.3508572270040983
8
1 0 0 1 1 0 1 0
8
0.8723956988374991 0.12760430116250085 0.4224352440563811 0.5775647559436189 0.3949124095420307 0.6050875904579693 0.6416976989287388 0.35830230107126115
8
0 1 1 0 0 1 1 0
8
1 0 1 0 0 1 0 1
8
1 0 0 1 1 0 0 1
8
1 0 0 1 1 0 1 0
8
0 1 0 1 0 1 0 1
8
1 0 1 0 0 1 0 1
8
0.4698747716657432 0.5301252283342568 0.3343608645388014 0.6656391354611987 0.6268443885931081 0.37315561140689196 0.4209854370054474 0.5790145629945526
8
1 0 1 0 1 0 0 1
8
0 1 1 0 0 1 0 1
8
0.3651638584040829 0.6348361415959172 0.5738069230779589 0.4261930769220412 0.502579566214193 0.497420433785807 0.39749683462216007 0.6025031653778399
8
1 0 0 1 0 1 1 0
4
1 0 0 1
8
1 0 0 1 1 0 1 0
8
0.46281705989055855 0.5371829401094416 0.6280607559880046 0.3719392440119954 0.37981084626427064 0.6201891537357294 0.5505945880855232 0.44940541191447686
8
1 0 1 0 0 1 0 1
8
0.6454038049141335 0.35459619508586643 0.10101429807456272 0.8989857019254373 0.39773060879032224 0.6022693912096778 0.26186988312574394 0.7381301168742561
8
0 1 0 1 0 1 0 1
8
0 1 1 0 0 1 1 0
8
1 0 1 0 0 1 1 0
8
1 0 1 0 0 1 0 1
8
1 0 0 1 0 1 1 0
8
0 1 0 1 1 0 1 0
8
0 1 1 0 0 1 1 0
8
1 0 0 1 0 1 0 1
8
0 1 0 1 1 0 0 1
8
0 1 0 1 0 1 1 0
8
1 0 0 1 1 0 0 1
8
0 1 1 0 1 0 0 1
8
1 0 0 1 0 1 1 0
8
1 0 1 0 0 1 1 0
8
0 1 1 0 1 0 0 1
8
0 1 0 1 0 1 1 0
8
0 1 1 0 0 1 0 1
8
1 0 0 1 1 0 1 0
8
0 1 0 1 0 1 1 0
8
0 1 0 1 0 1 0 1
4
1 0 0 1
8
0.09185717646880147 0.9081428235311986 0.8853949579459449 0.11460504205405508 0.1052761655465353 0.8947238344534647 0.44538962168747304 0.554610378312527
8
0 1 0 1 1 0 1 0
8
0 1 1 0 1 0 1 0
8
1 0 1 0 1 0 0 1
8
0 1 0 1 0 1 1 0
8
0 1 0 1 0 1 0 1
8
0 1 0 1 1 0 1 0
8
0 1 1 0 0 1 1 0
8
1 0 1 0 1 0 1 0
8
0 1 1 0 1 0 0 1
8
1 0 1 0 0 1 0 1
8
1 0 0 1 0 1 0 1
8
0 1 0 1 1 0 1 0
8
1 0 0 1 0 1 0 1
8
1 0 0 1 1 0 0 1
8
0.3253631633869131 0.6746368366130868 0.17059422557847387 0.8294057744215262 0.8346386279065046 0.16536137209349547 0.4404190817770127 0.5595809182229873
8
0.4787157137656572 0.5212842862343428 0.9996409491128259 0.00035905088717417313 0.7784677292699327 0.2215322707300673 0.5957799433871318 0.40422005661286825
8
0 1 0 1 1 0 0 1
8
0 1 1 0 1 0 1 0
8
0.08659724956655644 0.9134027504334435 0.515157869446622 0.484842130553378 0.17030218210626333 0.8296978178937366 0.38337471441475246 0.6166252855852474
8
1 0 0 1 1 0 1 0
8
1 0 0 1 0 1 0 1
8
1 0 1 0 1 0 0 1
8
0 1 1 0 1 0 0 1
4
0 1 0 1
8
0 1 0 1 1 0 1 0
8
0.9769492649398634 0.023050735060136503 0.5311487242676873 0.4688512757323126 0.5031899328325675 0.4968100671674325 0.7757180412830014 0.22428195871699852
8
0 1 1 0 1 0 0 1
8
0 1 0 1 0 1 1 0
8
0 1 1 0 1 0 1 0
8
0 1 1 0 1 0 1 0
8
1 0 0 1 1 0 1 0
8
1 0 1 0 0 1 0 1
8
0 1 0 1 1 0 0 1
8
0.2952227023526861 0.7047772976473139 0.8438037714594883 0.15619622854051174 0.5717688652671348 0.4282311347328652 0.4475443210286568 0.5524556789713431
8
0 1 1 0 1 0 1 0
8
1 0 1 0 0 1 1 0
8
0 1 1 0 1 0 1 0
8
0 1 1 0 1 0 1 0
8
0 1 1 0 1 0 1 0
8
0.12585913519208233 0.8741408648079178 0.9284292164848069 0.07157078351519305 0.49359658251833205 0.506403417481668 0.42458505446150485 0.575414945538495
8
0 1 0 1 1 0 0 1
8
1 0 0 1 1 0 0 1
8
0 1 0 1 1 0 0 1
8
1 0 0 1 1 0 0 1
8
1 0 1 0 1 0 1 0
8
0 1 1 0 0 1 0 1
8
1 0 0 1 0 1 0 1
8
0 1 0 1 0 1 0 1
4
0.7370799356343046 0.26292006436569537 0.4691320315773068 0.5308679684226932
8
1 0 0 1 1 0 0 1
8
1 0 1 0 1 0 1 0
8
1 0 0 1 0 1 0 1
8
1 0 0 1 0 1 0 1
8
0 1 1 0 0 1 1 0
8
1 0 0 1 0 1 0 1
8
0 1 1 0 0 1 1 0
8
0 1 1 0 0 1 1 0
8
1 0 0 1 1 0 1 0
8
1 0 1 0 0 1 0 1
8
0 1 0 1 1 0 0 1
8
1 0 0 1 1 0 0 1
8
1 0 1 0 1 0 1 0
8
0 1 1 0 1 0 1 0
8
1 0 0 1 0 1 0 1
8
1 0 1 0 0 1 0 1
8
1 0 1 0 1 0 0 1
8
1 0 0 1 0 1 1 0
8
1 0 0 1 0 1 0 1
8
0 1 1 0 1 0 1 0
8
1 0 0 1 1 0 1 0
8
1 0 1 0 1 0 1 0
8
1 0 0 1 0 1 0 1
8
0.41802228427817467 0.5819777157218253 0.6768811756602839 0.3231188243397161 0.9829693982390447 0.017030601760955288 0.5775552321575295 0.42244476784247054
4
0 1 1 0
8
1 0 0 1 0 1 1 0
8
0 1 0 1 1 0 0 1
8
1 0 1 0 0 1 0 1
8
1 0 1 0 0 1 1 0
8
0 1 0 1 1 0 1 0
8
1 0 0 1 0 1 1 0
8
0 1 1 0 1 0 0 1
8
1 0 0 1 0 1 0 1
8
0 1 0 1 1 0 0 1
8
0 1 0 1 0 1 1 0
8
1 0 1 0 0 1 0 1
8
1 0 0 1 0 1 0 1
8
1 0 0 1 0 1 1 0
8
0 1 1 0 1 0 0 1
8
1 0 0 1 1 0 1 0
8
0 1 1 0 0 1 1 0
8
0 1 1 0 0 1 0 1
8
1 0 1 0 1 0 0 1
8
0 1 0 1 0 1 0 1
8
1 0 1 0 0 1 1 0
8
1 0 0 1 0 1 0 1
8
0 1 0 1 0 1 0 1
8
1 0 0 1 1 0 0 1
8
1 0 1 0 1 0 0 1
4
0 1 1 0
8
0 1 0 1 0 1 1 0
8
1 0 0 1 1 0 1 0
8
0 1 0 1 1 0 1 0
8
1 0 0 1 1 0 0 1
8
1 0 1 0 0 1 1 0
8
1 0 1 0 1 0 0 1
8
0 1 1 0 0 1 0 1
8
0.44491598170798297 0.5550840182920171 0.8079129634225467 0.19208703657745327 0.060481016767451816 0.9395189832325482 0.4410052281054187 0.5589947718945812
8
0 1 1 0 1 0 1 0
8
0.5268345841720322 0.47316541582796784 0.44271981982557534 0.5572801801744246 0.5292272989161136 0.4707727010838863 0.6329431413281679 0.3670568586718322
8
1 0 1 0 0 1 0 1
8
0.5288744566391723 0.47112554336082774 0.5880108516760937 0.41198914832390626 0.3708579838780981 0.6291420161219018 0.5074150847282155 0.4925849152717845
8
0 1 0 1 1 0 1 0
8
1 0 1 0 0 1 1 0
8
0 1 0 1 1 0 1 0
8
0 1 0 1 0 1 1 0
8
0.5180248223705007 0.48197517762949926 0.44207786691294043 0.5579221330870595 0.08603180574817097 0.9139681942518291 0.432954932474711 0.567045067525289
8
0 1 1 0 0 1 0 1
8
0 1 1 0 1 0 1 0
8
1 0 0 1 0 1 1 0
8
0 1 0 1 1 0 1 0
8
1 0 0 1 1 0 1 0
8
0 1 0 1 0 1 0 1
8
0.050609944742993886 0.9493900552570061 0.27745406807609824 0.7225459319239018 0.35891614946899336 0.6410838505310066 0.5012529089386993 0.49874709106130066
4
1 0 1 0
8
1 0 0 1 0 1 1 0
8
1 0 0 1 1 0 1 0
8
0.21228393049197683 0.7877160695080232 0.6720183758484136 0.32798162415158627 0.4047226362877435 0.5952773637122566 0.3346790165104304 0.6653209834895696
8
0 1 1 0 0 1 0 1
8
0 1 0 1 0 1 0 1
8
1 0 1 0 1 0 0 1
8
1 0 1 0 0 1 0 1
8
1 0 1 0 1 0 0 1
8
0 1 1 0 1 0 0 1
8
1 0 1 0 0 1 0 1
8
1 0 1 0 1 0 0 1
8
1 0 1 0 0 1 1 0
8
1 0 1 0 0 1 1 0
8
0 1 1 0 1 0 0 1
8
0 1 0 1 1 0 0 1
8
1 0 1 0 0 1 1 0
8
0 1 1 0 0 1 0 1
8
1 0 0 1 1 0 0 1
8
1 0 0 1 0 1 1 0
8
1 0 0 1 1 0 1 0
8
1 0 1 0 0 1 0 1
8
0 1 0 1 0 1 0 1
8
0.4327597056680581 0.567240294331942 0.6204369491660149 0.37956305083398517 0.4576275636042029 0.5423724363957969 0.48702715115859957 0.5129728488414004
8
0 1 1 0 1 0 1 0
4
0 1 1 0
8
0 1 1 0 1 0 1 0
8
0 1 1 0 0 1 0 1
8
1 0 1 0 0 1 1 0
8
0 1 1 0 1 0 1 0
8
1 0 0 1 0 1 1 0
8
1 0 0 1 1 0 0 1
8
0 1 0 1 1 0 0 1
8
1 0 0 1 0 1 0 1
8
0 1 0 1 0 1 1 0
8
0.6272247136850817 0.3727752863149183 0.8496014393195928 0.1503985606804073 0.6206215873430829 0.3793784126569171 0.571773166485245 0.42822683351475493
8
1 0 0 1 1 0 0 1
8
1 0 1 0 1 0 1 0
8
1 0 1 0 1 0 1 0
8
1 0 0 1 0 1 0 1
8
1 0 0 1 0 1 1 0
8
0 1 0 1 0 1 1 0
8
1 0 0 1 1 0 1 0
8
1 0 0 1 1 0 0 1
8
1 0 1 0 0 1 0 1
8
1 0 0 1 0 1 1 0
8
1 0 0 1 0 1 0 1
8
0 1 0 1 0 1 0 1
8
0.6030987906565269 0.3969012093434731 0.16603634732848513 0.8339636526715148 0.32896271312878167 0.6710372868712182 0.5910459966721777 0.4089540033278223
8
0 1 0 1 1 0 1 0
4
1 0 1 0
8
0.3303274493788027 0.6696725506211973 0.4538685373136129 0.5461314626863871 0.31009218340936096 0.6899078165906389 0.35256834610845056 0.6474316538915494
8
1 0 1 0 1 0 1 0
8
1 0 1 0 0 1 1 0
8
1 0 0 1 1 0 0 1
8
0 1 0 1 1 0 0 1
8
1 0 1 0 1 0 1 0
8
0 1 1 0 1 0 0 1
8
1 0 1 0 0 1 0 1
8
1 0 0 1 1 0 0 1
8
0 1 1 0 1 0 0 1
8
0 1 1 0 1 0 1 0
8
0.5529681277540842 0.44703187224591573 0.441318829656875 0.558681170343125 0.443254506596777 0.556745493403223 0.28643871108508573 0.7135612889149143
8
1 0 1 0 0 1 0 1
8
1 0 1 0 0 1 1 0
8
0 1 1 0 1 0 1 0
8
0.4688807316291693 0.5311192683708307 0.4831361990866357 0.5168638009133644 0.28706296860396074 0.7129370313960391 0.6783693762636593 0.3216306237363407
8
0 1 1 0 1 0 0 1
8
0 1 1 0 0 1 0 1
8
1 0 1 0 1 0 0 1
8
0 1 0 1 0 1 1 0
8
1 0 0 1 0 1 0 1
8
1 0 0 1 1 0 1 0
8
0 1 1 0 0 1 1 0
8
1 0 0 1 0 1 1 0
4
1 0 1 0
8
0.4215064755549888 0.5784935244450112 0.44518274713227496 0.5548172528677252 0.6579415203094513 0.3420584796905486 0.5586397192021091 0.4413602807978909
8
0 1 0 1 1 0 1 0
8
0 1 1 0 1 0 0 1
8
0 1 0 1 0 1 1 0
8
1 0 1 0 0 1 0 1
8
0 1 0 1 1 0 0 1
8
0 1 0 1 0 1 1 0
8
0 1 1 0 0 1 1 0
8
1 0 1 0 0 1 1 0
8
1 0 1 0 0 1 1 0
8
0 1 0 1 0 1 0 1
8
0 1 1 0 1 0 0 1
8
1 0 1 0 0 1 0 1
8
0 1 1 0 1 0 1 0
8
0 1 1 0 0 1 0 1
8
1 0 0 1 0 1 1 0
8
1 0 0 1 1 0 0 1
8
1 0 0 1 1 0 0 1
8
0 1 1 0 1 0 1 0
8
0 1 0 1 1 0 0 1
8
0 1 0 1 1 0 0 1
8
0 1 1 0 0 1 0 1
8
0.8000912753576426 0.19990872464235737 0.49845191441824493 0.5015480855817551 0.16432830307026083 0.8356716969297392 0.029460760198502526 0.9705392398014975
8
1 0 0 1 1 0 0 1
4
0 1 0 1
8
0 1 1 0 1 0 1 0
8
1 0 0 1 1 0 0 1
8
0 1 0 1 0 1 0 1
8
1 0 0 1 0 1 0 1
8
1 0 0 1 0 1 0 1
8
0 1 1 0 0 1 1 0
8
0 1 1 0 1 0 0 1
8
1 0 1 0 1 0 1 0
8
1 0 0 1 0 1 0 1
8
0 1 0 1 0 1 0 1
8
0 1 0 1 0 1 1 0
8
1 0 0 1 0 1 0 1
8
0.315152169209853 0.684847830790147 0.05233965801135061 0.9476603419886493 0.4340258167849653 0.5659741832150347 0.49233592766056783 0.5076640723394322
8
1 0 1 0 0 1 1 0
8
0 1 0 1 1 0 0 1
8
0 1 1 0 0 1 0 1
8
1 0 1 0 1 0 0 1
8
0 1 1 0 1 0 0 1
8
1 0 0 1 1 0 1 0
8
0 1 0 1 0 1 0 1
8
1 0 1 0 0 1 1 0
8
1 0 1 0 0 1 0 1
8
0 1 1 0 0 1 1 0
8
1 0 0 1 0 1 1 0
4
0 1 1 0
8
1 0 1 0 0 1 1 0
8
0 1 1 0 0 1 0 1
8
1 0 0 1 0 1 0 1
8
0 1 1 0 1 0 1 0
8
1 0 1 0 0 1 1 0
8
0.17559174552236467 0.8244082544776353 0.4806051794189276 0.5193948205810724 0.8160545648967136 0.18394543510328648 0.9813811115069768 0.018618888493023192
8
0.4561508820275619 0.5438491179724382 0.6740631078902365 0.3259368921097635 0.34797531905423873 0.6520246809457613 0.01242040264492819 0.9875795973550718
8
1 0 1 0 0 1 0 1
8
1 0 1 0 1 0 1 0
8
0 1 1 0 0 1 1 0
8
0 1 0 1 0 1 0 1
8
1 0 0 1 1 0 1 0
8
1 0 1 0 0 1 1 0
8
1 0 1 0 0 1 1 0
8
0 1 0 1 1 0 0 1
8
0.40276436310622715 0.5972356368937729 0.5152652079146914 0.4847347920853086 0.48839806731557833 0.5116019326844217 0.45613006844363574 0.5438699315563643
8
0 1 0 1 0 1 0 1
8
1 0 0 1 0 1 1 0
8
1 0 1 0 1 0 1 0
8
1 0 0 1 0 1 0 1
8
1 0 0 1 0 1 1 0
8
0 1 1 0 0 1 1 0
8
1 0 0 1 0 1 1 0
8
1 0 0 1 1 0 0 1
4
1 0 0 1
8
0 1 1 0 1 0 0 1
8
0 1 1 0 1 0 0 1
8
1 0 1 0 0 1 0 1
8
1 0 0 1 0 1 1 0
8
1 0 1 0 1 0 0 1
8
0 1 0 1 0 1 0 1
8
0 1 0 1 1 0 0 1
8
1 0 1 0 0 1 1 0
8
0 1 1 0 1 0 0 1
8
1 0 0 1 0 1 0 1
8
1 0 0 1 1 0 1 0
8
0 1 0 1 0 1 0 1
8
1 0 1 0 0 1 1 0
8
0 1 0 1 0 1 1 0
8
1 0 1 0 1 0 1 0
8
1 0 1 0 1 0 1 0
8
1 0 0 1 1 0 0 1
8
0 1 0 1 0 1 1 0
8
0 1 0 1 0 1 1 0
8
0.4767357814550997 0.5232642185449002 0.5311522761086609 0.468847723891339 0.3350781622685434 0.6649218377314566 0.34781263328363454 0.6521873667163655
8
1 0 1 0 1 0 0 1
8
0.22563982534478552 0.7743601746552145 0.26179969178691725 0.7382003082130828 0.234857791270833 0.765142208729167 0.5139940454714673 0.4860059545285327
8
1 0 1 0 1 0 1 0
8
1 0 1 0 1 0 0 1
4
1 0 1 0
8
1 0 0 1 0 1 0 1
8
1 0 0 1 0 1 1 0
8
1 0 0 1 1 0 0 1
8
1 0 0 1 0 1 0 1
8
0.4997578565379025 0.5002421434620975 0.9416947594691695 0.05830524053083056 0.5832539548250691 0.4167460451749309 0.7138583923709859 0.28614160762901414
8
1 0 1 0 1 0 1 0
8
1 0 1 0 0 1 1 0
8
0 1 0 1 1 0 1 0
8
1 0 1 0 0 1 1 0
8
1 0 0 1 1 0 0 1
8
1 0 0 1 0 1 0 1
8
0 1 1 0 0 1 1 0
8
1 0 1 0 0 1 0 1
8
1 0 1 0 1 0 1 0
8
1 0 0 1 1 0 0 1
8
1 0 1 0 0 1 0 1
8
0 1 0 1 1 0 1 0
8
1 0 0 1 0 1 0 1
8
0 1 0 1 1 0 0 1
8
1 0 0 1 0 1 1 0
8
1 0 1 0 1 0 1 0
8
0 1 1 0 0 1 1 0
8
1 0 0 1 0 1 0 1
8
0 1 0 1 1 0 0 1
4
1 0 1 0
8
1 0 1 0 1 0 1 0
8
1 0 1 0 1 0 1 0
8
0 1 0 1 0 1 0 1
8
1 0 1 0 1 0 1 0
8
1 0 1 0 0 1 0 1
8
1 0 0 1 1 0 0 1
8
0 1 0 1 0 1 0 1
8
1 0 0 1 0 1 1 0
8
0 1 0 1 1 0 0 1
8
1 0 1 0 1 0 0 1
8
1 0 1 0 0 1 1 0
8
0 1 0 1 1 0 1 0
8
0 1 0 1 1 0 0 1
8
0 1 0 1 1 0 0 1
8
1 0 0 1 0 1 0 1
8
1 0 1 0 1 0 1 0
8
0.15458661493027617 0.8454133850697239 0.4236488662420439 0.5763511337579561 0.2561538977610078 0.7438461022389922 0.4764882802442654 0.5235117197557346
8
0.15635916986476192 0.843640830135238 0.6990010165132301 0.3009989834867699 0.6396571924881832 0.36034280751181674 0.2630739664716112 0.7369260335283888
8
0 1 0 1 0 1 1 0
8
0 1 1 0 0 1 0 1
8
0 1 1 0 1 0 0 1
8
0 1 0 1 0 1 0 1
8
1 0 0 1 1 0 0 1
8
1 0 0 1 1 0 0 1
4
0 1 0 1
8
0 1 0 1 1 0 0 1
8
1 0 0 1 0 1 1 0
8
0.25005329679102123 0.7499467032089787 0.5981435849945301 0.40185641500546987 0.2018154317250533 0.7981845682749467 0.48623491844438 0.5137650815556201
8
1 0 1 0 1 0 1 0
8
0 1 0 1 1 0 1 0
8
1 0 1 0 1 0 1 0
8
1 0 1 0 0 1 0 1
8
1 0 1 0 0 1 1 0
8
1 0 1 0 0 1 1 0
8
0.017912834776981384 0.9820871652230186 0.6915727008199939 0.30842729918000616 0.14975514652126007 0.85024485347874 0.47575335831839727 0.5242466416816027
8
1 0 1 0 0 1 1 0
8
1 0 1 0 0 1 1 0
8
1 0 0 1 0 1 1 0
8
0 1 0 1 1 0 0 1
8
0 1 1 0 0 1 1 0
8
0 1 1 0 0 1 1 0
8
1 0 0 1 1 0 0 1
8
1 0 0 1 0 1 0 1
8
1 0 1 0 0 1 0 1
8
0 1 0 1 0 1 1 0
8
1 0 0 1 0 1 1 0
8
1 0 0 1 1 0 1 0
8
1 0 1 0 0 1 0 1
8
0.5046543062770583 0.49534569372294174 0.43493634683939525 0.5650636531606047 0.5752443099231234 0.4247556900768766 0.5953465431496989 0.4046534568503011
4
1 0 1 0
8
0.8836352861191256 0.11636471388087442 0.46501927109924757 0.5349807289007524 0.8821124873279763 0.11788751267202371 0.06758366949030493 0.9324163305096951
8
1 0 1 0 0 1 0 1
8
1 0 0 1 1 0 1 0
8
1 0 1 0 0 1 0 1
8
0 1 1 0 1 0 0 1
8
0 1 0 1 1 0 0 1
8
1 0 0 1 1 0 0 1
8
0 1 1 0 1 0 0 1
8
1 0 0 1 1 0 0 1
8
1 0 0 1 0 1 1 0
8
1 0 1 0 1 0 1 0
8
1 0 1 0 1 0 0 1
8
0.26922017148483735 0.7307798285151627 0.5567252771984432 0.4432747228015568 0.15970110759633838 0.8402988924036616 0.3243479613983385 0.6756520386016615
8
1 0 0 1 1 0 1 0
8
0 1 1 0 1 0 1 0
8
1 0 0 1 0 1 1 0
8
1 0 0 1 0 1 0 1
8
0 1 0 1 1 0 0 1
8
1 0 1 0 0 1 1 0
8
0 1 0 1 1 0 0 1
8
1 0 0 1 1 0 0 1
8
1 0 1 0 1 0 1 0
8
1 0 0 1 1 0 1 0
8
1 0 1 0 1 0 1 0
4
0 1 1 0
8
0 1 1 0 0 1 1 0
8
0 1 1 0 1 0 1 0
8
1 0 1 0 1 0 0 1
8
0 1 0 1 1 0 1 0
8
1 0 1 0 0 1 0 1
8
0 1 0 1 1 0 1 0
8
1 0 1 0 1 0 1 0
8
1 0 0 1 1 0 1 0
8
0 1 0 1 1 0 0 1
8
0 1 0 1 1 0 1 0
8
1 0 0 1 1 0 1 0
8
0 1 1 0 1 0 0 1
8
0 1 1 0 0 1 1 0
8
0 1 0 1 0 1 0 1
8
1 0 0 1 1 0 1 0
8
0 1 1 0 1 0 1 0
8
1 0 0 1 0 1 1 0
8
1 0 0 1 0 1 1 0
8
1 0 0 1 1 0 0 1
8
1 0 0 1 1 0 0 1
8
1 0 0 1 0 1 0 1
8
0 1 1 0 0 1 1 0
8
0 1 1 0 0 1 1 0
8
0 1 0 1 1 0 1 0
4
1 0 1 0
8
1 0 1 0 0 1 0 1
8
0 1 1 0 0 1 0 1
8
0.8986558311459438 0.10134416885405603 0.4957432395926316 0.5042567604073684 0.5399010056326693 0.4600989943673307 0.6520991173669275 0.34790088263307245
8
1 0 0 1 0 1 1 0
8
1 0 0 1 0 1 1 0
8
1 0 1 0 0 1 0 1
8
0 1 1 0 0 1 1 0
8
0 1 1 0 1 0 0 1
8
1 0 1 0 0 1 0 1
8
0 1 1 0 0 1 0 1
8
1 0 1 0 1 0 0 1
8
0 1 1 0 1 0 1 0
8
0.877184466003492 0.12281553399650808 0.7754618346285798 0.22453816537142038 0.5571898355587998 0.44281016444120025 0.3319006886121896 0.6680993113878104
8
1 0 0 1 1 0 0 1
8
0.6233186640834675 0.3766813359165326 0.3729249450778997 0.6270750549221004 0.3652430403344992 0.6347569596655008 0.665193281426851 0.3348067185731489
8
1 0 0 1 1 0 0 1
8
0 1 0 1 1 0 1 0
8
1 0 0 1 1 0 0 1
8
0 1 0 1 0 1 0 1
8
1 0 0 1 0 1 0 1
8
0.26208292549709566 0.7379170745029044 0.7640810791158412 0.23591892088415878 0.30075298120117755 0.6992470187988225 0.7957008017126979 0.20429919828730217
8
1 0 1 0 0 1 0 1
8
0 1 1 0 1 0 1 0
8
1 0 0 1 0 1 0 1
4
0 1 1 0
8
1 0 0 1 0 1 1 0
8
1 0 0 1 0 1 0 1
8
0 1 1 0 0 1 1 0
8
0 1 0 1 1 0 0 1
8
0 1 1 0 0 1 1 0
8
1 0 1 0 0 1 1 0
8
0.4547654416921182 0.5452345583078817 0.693325446257595 0.30667455374240504 0.8303030693615778 0.1696969306384222 0.6161351690505242 0.38386483094947565
8
0 1 1 0 0 1 1 0
8
1 0 0 1 0 1 0 1
8
1 0 1 0 0 1 1 0
8
0 1 0 1 0 1 1 0
8
0 1 0 1 1 0 1 0
8
0 1 0 1 0 1 0 1
8
0 1 0 1 0 1 0 1
8
0 1 1 0 1 0 0 1
8
0 1 0 1 0 1 1 0
8
0 1 1 0 0 1 0 1
8
0 1 0 1 1 0 1 0
8
1 0 1 0 0 1 0 1
8
1 0 1 0 1 0 0 1
8
0 1 0 1 1 0 0 1
8
0.5301636851904148 0.4698363148095853 0.4957776206891168 0.5042223793108832 0.5326679560129475 0.46733204398705264 0.15675233340072875 0.8432476665992713
8
0 1 0 1 1 0 1 0
8
0.48719983650271137 0.5128001634972886 0.5515049027789511 0.44849509722104886 0.5208404901948039 0.47915950980519606 0.644011091902874 0.355988908097126
4
1 0 1 0
8
0 1 0 1 0 1 1 0
8
0 1 1 0 0 1 0 1
8
1 0 1 0 1 0 1 0
8
1 0 0 1 0 1 0 1
8
1 0 0 1 1 0 1 0
8
0 1 1 0 0 1 0 1
8
1 0 0 1 1 0 1 0
8
0 1 0 1 0 1 1 0
8
1 0 0 1 1 0 1 0
8
1 0 0 1 1 0 1 0
8
0 1 0 1 0 1 0 1
8
1 0 1 0 1 0 1 0
8
0 1 0 1 1 0 1 0
8
0.49163865269805096 0.5083613473019489 0.821666064852271 0.17833393514772897 0.41778872425822705 0.582211275741773 0.9642190837988083 0.035780916201191726
8
1 0 0 1 1 0 1 0
8
0 1 0 1 1 0 0 1
8
0 1 0 1 0 1 0 1
8
1 0 1 0 1 0 1 0
8
1 0 1 0 0 1 1 0
8
0 1 1 0 0 1 1 0
8
0 1 0 1 1 0 0 1
8
0 1 1 0 0 1 1 0
8
0 1 1 0 1 0 1 0
8
1 0 0 1 0 1 0 1
4
0 1 1 0
8
0 1 1 0 1 0 1 0
8
0 1 0 1 0 1 1 0
8
0 1 0 1 0 1 0 1
8
0 1 0 1 0 1 0 1
8
0.9122222865573401 0.08777771344265996 0.6867245220438453 0.3132754779561548 0.5728750187441634 0.4271249812558366 0.4625038215263214 0.5374961784736787
8
0 1 0 1 0 1 0 1
8
1 0 0 1 0 1 0 1
8
0.7643429824765318 0.23565701752346824 0.19882482490476452 0.8011751750952355 0.5365278640585655 0.4634721359414344 0.32324198736137016 0.6767580126386298
8
0.5342543872512354 0.4657456127487646 0.14769827353773954 0.8523017264622604 0.7425275023795049 0.25747249762049496 0.42578858362852845 0.5742114163714716
8
1 0 1 0 0 1 1 0
8
1 0 1 0 0 1 1 0
8
0.033711877986601566 0.9662881220133984 0.49040729318627546 0.5095927068137246 0.6193723389661114 0.3806276610338885 0.07782172981760019 0.9221782701823998
8
0 1 0 1 1 0 1 0
8
0 1 0 1 0 1 1 0
8
1 0 0 1 0 1 1 0
8
1 0 1 0 1 0 1 0
8
0 1 0 1 1 0 0 1
8
1 0 1 0 1 0 0 1
8
0.8826700347234084 0.11732996527659159 0.8545267496526843 0.14547325034731576 0.41801644334969396 0.5819835566503061 0.3639874249213231 0.636012575078677
8
1 0 1 0 0 1 0 1
8
1 0 0 1 0 1 0 1
8
0 1 0 1 1 0 1 0
8
0.8853889783571345 0.11461102164286553 0.6099860862344839 0.3900139137655161 0.4641096839717886 0.5358903160282114 0.5650847547886391 0.4349152452113609
8
1 0 0 1 1 0 1 0
4
0 1 0 1
8
0 1 1 0 1 0 0 1
8
0 1 0 1 1 0 0 1
8
0 1 1 0 1 0 1 0
8
1 0 0 1 1 0 0 1
8
1 0 0 1 1 0 0 1
8
0.47319074461145316 0.5268092553885467 0.876877300073584 0.12312269992641606 0.7347485258111028 0.2652514741888972 0.9116671684931376 0.08833283150686239
8
1 0 0 1 0 1 1 0
8
1 0 1 0 1 0 0 1
8
0 1 1 0 1 0 1 0
8
0.047445153497635915 0.9525548465023641 0.6068521282019652 0.3931478717980349 0.9160685055971919 0.08393149440280812 0.7199240036700861 0.2800759963299139
8
1 0 0 1 0 1 0 1
8
0 1 1 0 1 0 0 1
8
1 0 0 1 0 1 0 1
8
1 0 1 0 1 0 1 0
8
1 0 0 1 0 1 0 1
8
0 1 1 0 0 1 0 1
8
0 1 1 0 0 1 0 1
8
0 1 1 0 1 0 0 1
8
1 0 0 1 1 0 1 0
8
0.7330223723212429 0.2669776276787571 0.2733980750963654 0.7266019249036346 0.6752072759019413 0.3247927240980587 0.9348182856251527 0.06518171437484732
8
0 1 1 0 0 1 0 1
8
0 1 0 1 1 0 0 1
8
1 0 1 0 0 1 0 1
8
1 0 1 0 1 0 0 1
4
1 0 1 0
4
0 1 1 0
4
0.632902485909346 0.367097514090654 0.17876581674157846 0.8212341832584216
4
0.2916531088645522 0.7083468911354477 0.4414151560765649 0.5585848439234351
4
0.1084371753036122 0.8915628246963878 0.7924117023966056 0.20758829760339437
4
1 0 0 1
4
0 1 0 1
4
1 0 1 0
4
1 0 0 1
4
0 1 1 0
4
0 1 0 1
4
1 0 0 1
4
1 0 1 0
4
1 0 0 1
4
1 0 0 1
4
0 1 1 0
4
0 1 1 0
4
0 1 1 0
4
1 0 0 1
4
1 0 1 0
4
0 1 1 0
4
0 1 0 1
4
1 0 1 0
4
0 1 0 1
4
1 0 1 0
2
0 1
